NAME : prob25d
TYPE : PDTSP
DIMENSION : 51
EDGE_WEIGHT_TYPE : EUC_2D
NODE_COORD_SECTION
1 660 70
2 43 819
3 969 294
4 289 582
5 653 912
6 625 170
7 555 333
8 819 752
9 955 596
10 462 899
11 533 445
12 773 618
13 109 306
14 500 428
15 595 93
16 460 426
17 354 941
18 584 772
19 475 214
20 962 336
21 855 63
22 413 646
23 149 628
24 784 125
25 547 456
26 154 790
27 333 102
28 745 501
29 549 370
30 667 283
31 5 306
32 132 494
33 852 559
34 3 275
35 936 0
36 48 241
37 5 648
38 62 888
39 259 778
40 708 495
41 807 194
42 103 985
43 900 616
44 402 358
45 604 43
46 64 148
47 308 303
48 751 58
49 653 241
50 523 461
51 279 527
PICKUP_AND_DELIVERY_SECTION
1 0 0 0 0 0 0
2 0 0 0 0 27 0
3 0 0 0 0 28 0
4 0 0 0 0 29 0
5 0 0 0 0 30 0
6 0 0 0 0 31 0
7 0 0 0 0 32 0
8 0 0 0 0 33 0
9 0 0 0 0 34 0
10 0 0 0 0 35 0
11 0 0 0 0 36 0
12 0 0 0 0 37 0
13 0 0 0 0 38 0
14 0 0 0 0 39 0
15 0 0 0 0 40 0
16 0 0 0 0 41 0
17 0 0 0 0 42 0
18 0 0 0 0 43 0
19 0 0 0 0 44 0
20 0 0 0 0 45 0
21 0 0 0 0 46 0
22 0 0 0 0 47 0
23 0 0 0 0 48 0
24 0 0 0 0 49 0
25 0 0 0 0 50 0
26 0 0 0 0 51 0
27 0 0 0 0 0 2
28 0 0 0 0 0 3
29 0 0 0 0 0 4
30 0 0 0 0 0 5
31 0 0 0 0 0 6
32 0 0 0 0 0 7
33 0 0 0 0 0 8
34 0 0 0 0 0 9
35 0 0 0 0 0 10
36 0 0 0 0 0 11
37 0 0 0 0 0 12
38 0 0 0 0 0 13
39 0 0 0 0 0 14
40 0 0 0 0 0 15
41 0 0 0 0 0 16
42 0 0 0 0 0 17
43 0 0 0 0 0 18
44 0 0 0 0 0 19
45 0 0 0 0 0 20
46 0 0 0 0 0 21
47 0 0 0 0 0 22
48 0 0 0 0 0 23
49 0 0 0 0 0 24
50 0 0 0 0 0 25
51 0 0 0 0 0 26
DEPOT_SECTION
1 
-1
EOF
